JulietBench/Juliet_Based_Patch_Bench/linux/CWE-189-Numeric-Errors/CVE_2008_2826_735ce972fbc8a65fb17788debd7bbe7b4383cc62/Resultsctp_getsockopt_local_addrs_old_SnippetEQ.smt2
; benchmark generated from python API
(set-info :status unknown)
(declare-fun R () (_ BitVec 32))
(declare-fun rdi () (_ BitVec 32))
(assert
 (let (($x61 (= (_ bv4294967274 32) R)))
 (let ((?x6 ((_ extract 31 0) rdi)))
 (let (($x10 (bvsge (_ bv0 32) ?x6)))
 (let (($x49 (and $x10 $x61)))
 (let (($x65 (= (_ bv0 32) R)))
 (let (($x40 (bvslt (_ bv0 32) ?x6)))
 (let (($x63 (bvsge (_ bv76695843 32) ?x6)))
 (let (($x191 (and $x63 $x40 $x65)))
 (let (($x186 (bvslt (_ bv76695843 32) ?x6)))
 (let (($x190 (and $x186 $x40 $x61)))
 (let (($x192 (or $x190 $x191 $x49)))
 (let (($x59 (and $x40 $x65)))
 (let (($x56 (or $x59 $x49)))
 (and $x56 $x192)))))))))))))))
(check-sat)
